c Maximum weighted clique instances generated from exactcolors.
c cutoff: 10129639.
c A clique of value > scalef (10129639) defines an improving stable sets for coloring.
p edge 19 96
e 1 5
e 1 9
e 1 10
e 1 14
e 1 18
e 1 19
e 2 6
e 2 9
e 2 11
e 2 15
e 2 18
e 2 19
e 3 7
e 3 9
e 3 12
e 3 16
e 3 18
e 3 19
e 4 8
e 4 9
e 4 13
e 4 17
e 4 18
e 4 19
e 5 6
e 5 7
e 5 8
e 5 10
e 5 14
e 5 15
e 5 16
e 5 17
e 5 19
e 6 7
e 6 8
e 6 11
e 6 14
e 6 15
e 6 16
e 6 17
e 6 19
e 7 8
e 7 12
e 7 14
e 7 15
e 7 16
e 7 17
e 7 19
e 8 13
e 8 14
e 8 15
e 8 16
e 8 17
e 8 19
e 9 10
e 9 11
e 9 12
e 9 13
e 9 18
e 9 19
e 10 11
e 10 12
e 10 13
e 10 14
e 10 15
e 10 16
e 10 17
e 10 18
e 11 12
e 11 13
e 11 14
e 11 15
e 11 16
e 11 17
e 11 18
e 12 13
e 12 14
e 12 15
e 12 16
e 12 17
e 12 18
e 13 14
e 13 15
e 13 16
e 13 17
e 13 18
e 14 15
e 14 16
e 14 17
e 14 18
e 15 16
e 15 17
e 15 18
e 16 17
e 16 18
e 17 18
n 1 5809645
n 2 5809645
n 3 5809645
n 4 5809645
n 5 1936548
n 6 1936548
n 7 1936548
n 8 1936548
n 9 1936548
n 10 1787583
n 11 1787583
n 12 1787583
n 13 1787583
n 14 595861
n 15 595861
n 16 595861
n 17 595861
n 18 595861
n 19 2383444
